
Gurobi 10.0.0 (win64) logging started Mon Mar 13 20:43:41 2023

Set parameter LogFile to value "logFiles/N-1L-120D/N-1L-7U-22F-23V-120D-c-charterout.log"
Gurobi Optimizer version 10.0.0 build v10.0.0rc2 (win64)

CPU model: Intel(R) Core(TM) i5-10210U CPU @ 1.60GHz, instruction set [SSE2|AVX|AVX2]
Thread count: 4 physical cores, 8 logical processors, using up to 8 threads

Optimize a model with 60959 rows, 460991 columns and 4590589 nonzeros
Model fingerprint: 0xf95c89ad
Variable types: 992 continuous, 459999 integer (459999 binary)
Coefficient statistics:
  Matrix range     [1e+00, 2e+05]
  Objective range  [4e+01, 2e+07]
  Bounds range     [1e+00, 1e+00]
  RHS range        [1e+00, 3e+06]
Presolve removed 236 rows and 0 columns
Presolve time: 0.18s

Explored 0 nodes (0 simplex iterations) in 0.55 seconds (0.10 work units)
Thread count was 1 (of 8 available processors)

Solution count 0

Model is infeasible or unbounded
Best objective -, best bound -, gap -

Gurobi 10.0.0 (win64) logging started Mon Mar 13 20:49:51 2023

Set parameter LogFile to value "logFiles/N-1L-120D/N-1L-7U-22F-23V-120D-c-charterout.log"
Gurobi Optimizer version 10.0.0 build v10.0.0rc2 (win64)

CPU model: Intel(R) Core(TM) i5-10210U CPU @ 1.60GHz, instruction set [SSE2|AVX|AVX2]
Thread count: 4 physical cores, 8 logical processors, using up to 8 threads

Optimize a model with 60959 rows, 460991 columns and 4590589 nonzeros
Model fingerprint: 0xeadeed2f
Variable types: 992 continuous, 459999 integer (459999 binary)
Coefficient statistics:
  Matrix range     [1e+00, 2e+05]
  Objective range  [4e+01, 2e+07]
  Bounds range     [1e+00, 1e+00]
  RHS range        [1e+00, 3e+06]
Presolve removed 236 rows and 0 columns
Presolve time: 0.12s

Explored 0 nodes (0 simplex iterations) in 0.39 seconds (0.10 work units)
Thread count was 1 (of 8 available processors)

Solution count 0

Model is infeasible or unbounded
Best objective -, best bound -, gap -
IIS computation: initial model status unknown, solving to determine model status
Presolve removed 236 rows and 0 columns
Presolve time: 0.13s

Explored 0 nodes (0 simplex iterations) in 0.83 seconds (0.10 work units)
Thread count was 1 (of 8 available processors)

Solution count 0
No other solutions better than -1e+100

Model is infeasible
Best objective -, best bound -, gap -

IIS computed: 1 constraints, 0 bounds
IIS runtime: 0.88 seconds (0.10 work units)

Gurobi 10.0.0 (win64) logging started Mon Mar 13 20:57:57 2023

Set parameter LogFile to value "logFiles/N-1L-120D/N-1L-7U-22F-23V-120D-c-charterout.log"
Gurobi Optimizer version 10.0.0 build v10.0.0rc2 (win64)

CPU model: Intel(R) Core(TM) i5-10210U CPU @ 1.60GHz, instruction set [SSE2|AVX|AVX2]
Thread count: 4 physical cores, 8 logical processors, using up to 8 threads

Optimize a model with 60959 rows, 461081 columns and 4590769 nonzeros
Model fingerprint: 0x93848022
Variable types: 992 continuous, 460089 integer (460089 binary)
Coefficient statistics:
  Matrix range     [1e+00, 2e+05]
  Objective range  [4e+01, 2e+07]
  Bounds range     [1e+00, 1e+00]
  RHS range        [1e+00, 3e+06]
Presolve removed 28223 rows and 77784 columns (presolve time = 5s) ...
Presolve removed 47478 rows and 95954 columns (presolve time = 10s) ...
Presolve removed 47497 rows and 95955 columns (presolve time = 15s) ...
Presolve removed 47483 rows and 95941 columns
Presolve time: 15.33s
Presolved: 13476 rows, 365140 columns, 2547728 nonzeros
Variable types: 1006 continuous, 364134 integer (364134 binary)
Deterministic concurrent LP optimizer: primal simplex, dual simplex, and barrier
Showing barrier log only...

Root barrier log...

Ordering time: 1.89s

Barrier statistics:
 AA' NZ     : 8.497e+05
 Factor NZ  : 2.207e+06 (roughly 170 MB of memory)
 Factor Ops : 1.128e+09 (less than 1 second per iteration)
 Threads    : 1

                  Objective                Residual
Iter       Primal          Dual         Primal    Dual     Compl     Time
   0  -2.06833518e+16  4.43148584e+13  3.80e+09 6.35e+05  2.24e+11    24s
   1  -5.22479589e+15  4.16591574e+13  9.63e+08 5.54e+05  5.72e+10    25s
   2  -8.10068936e+14  2.99849385e+13  1.52e+08 2.67e+04  9.15e+09    25s
   3  -7.78103102e+12  1.63286792e+13  1.45e+06 2.33e-09  1.10e+08    26s
   4  -1.03126651e+12  3.90632912e+12  1.93e+05 1.86e-09  1.67e+07    26s
   5  -1.58843667e+11  1.21435356e+12  2.97e+04 2.98e-08  3.43e+06    27s
   6  -9.95667234e+10  1.14079354e+12  1.86e+04 2.61e-08  2.65e+06    27s
   7  -8.62973030e+10  7.15652379e+11  1.62e+04 1.65e-08  1.87e+06    28s
   8  -6.56884978e+10  5.29240749e+11  1.23e+04 1.20e-08  1.37e+06    29s
   9  -2.30855701e+10  3.52004312e+11  4.45e+03 7.68e-09  6.99e+05    29s
  10  -6.42918469e+08  7.08968886e+10  3.00e+02 2.68e-08  1.07e+05    30s
  11   3.01471203e+08  2.63897849e+10  1.29e+02 1.09e-08  3.88e+04    31s
  12   6.41795035e+08  1.69514794e+10  6.91e+01 6.55e-09  2.39e+04    31s
  13   7.39949893e+08  9.43363486e+09  5.20e+01 1.61e-08  1.33e+04    32s
  14   8.32806115e+08  8.40913058e+09  3.61e+01 1.54e-08  1.13e+04    33s
  15   9.10472592e+08  6.17648578e+09  2.27e+01 1.55e-08  7.85e+03    34s
  16   9.80822746e+08  5.06899139e+09  1.05e+01 1.58e-08  5.90e+03    35s
  17   9.96126031e+08  4.24282852e+09  7.89e+00 1.15e-08  4.67e+03    35s
  18   1.00762423e+09  3.19588528e+09  5.93e+00 1.01e-08  3.16e+03    36s
  19   1.01435567e+09  2.27299091e+09  4.79e+00 9.32e-09  1.84e+03    37s
  20   1.02350590e+09  1.86100628e+09  3.25e+00 6.95e-09  1.22e+03    39s
  21   1.03524965e+09  1.42358954e+09  1.43e+00 4.72e-09  5.53e+02    40s
  22   1.04000747e+09  1.29912989e+09  9.33e-01 2.87e-09  3.65e+02    41s
  23   1.04441097e+09  1.22453745e+09  5.52e-01 2.54e-09  2.51e+02    41s
  24   1.04506570e+09  1.19582785e+09  5.08e-01 2.72e-09  2.09e+02    42s
  25   1.04703576e+09  1.18786686e+09  3.80e-01 2.59e-09  1.95e+02    43s
  26   1.04775976e+09  1.13840928e+09  3.34e-01 1.96e-09  1.25e+02    43s
  27   1.05063586e+09  1.11114860e+09  1.71e-01 1.86e-09  8.30e+01    44s
  28   1.05218192e+09  1.09551108e+09  1.24e-01 1.72e-09  5.93e+01    45s
  29   1.05331226e+09  1.09095558e+09  9.51e-02 1.83e-09  5.15e+01    46s
  30   1.05377119e+09  1.08705609e+09  8.54e-02 2.09e-09  4.55e+01    47s
  31   1.05495637e+09  1.08444736e+09  6.29e-02 2.18e-09  4.03e+01    48s
  32   1.05622590e+09  1.08066047e+09  4.54e-02 2.11e-09  3.34e+01    50s
  33   1.05709079e+09  1.07580798e+09  3.76e-02 1.74e-09  2.56e+01    51s
  34   1.05842671e+09  1.07301300e+09  2.62e-02 1.71e-09  1.99e+01    52s
  35   1.05903577e+09  1.07157860e+09  2.22e-02 2.06e-09  1.71e+01    53s
  36   1.05956234e+09  1.07045476e+09  1.91e-02 2.29e-09  1.49e+01    54s
  37   1.05988966e+09  1.06966084e+09  1.74e-02 2.32e-09  1.34e+01    55s
  38   1.06021026e+09  1.06935846e+09  1.58e-02 2.68e-09  1.25e+01    57s
  39   1.06059643e+09  1.06857481e+09  1.41e-02 2.10e-09  1.09e+01    58s
  40   1.06110195e+09  1.06828351e+09  1.17e-02 2.80e-09  9.82e+00    59s
  41   1.06137424e+09  1.06747215e+09  1.05e-02 2.58e-09  8.33e+00    60s
  42   1.06171115e+09  1.06700598e+09  8.98e-03 1.96e-09  7.24e+00    62s
  43   1.06200413e+09  1.06655220e+09  7.79e-03 2.23e-09  6.22e+00    63s
  44   1.06248102e+09  1.06592105e+09  5.84e-03 2.24e-09  4.70e+00    64s
  45   1.06266455e+09  1.06558371e+09  5.02e-03 2.43e-09  3.99e+00    65s
  46   1.06297926e+09  1.06524228e+09  3.75e-03 2.04e-09  3.09e+00    66s
  47   1.06328819e+09  1.06490785e+09  2.58e-03 1.79e-09  2.21e+00    67s
  48   1.06347800e+09  1.06450588e+09  1.88e-03 1.72e-09  1.40e+00    68s
  49   1.06362530e+09  1.06440620e+09  1.35e-03 1.62e-09  1.07e+00    69s
  50   1.06374734e+09  1.06422981e+09  9.00e-04 2.01e-09  6.59e-01    71s
  51   1.06384988e+09  1.06413270e+09  5.38e-04 1.90e-09  3.86e-01    72s
  52   1.06389727e+09  1.06407803e+09  3.77e-04 1.98e-09  2.47e-01    73s
  53   1.06392204e+09  1.06407078e+09  2.90e-04 1.95e-09  2.03e-01    74s
  54   1.06395686e+09  1.06403320e+09  1.67e-04 1.42e-09  1.04e-01    74s
  55   1.06397559e+09  1.06401906e+09  1.04e-04 1.40e-09  5.93e-02    75s
  56   1.06398528e+09  1.06401624e+09  7.10e-05 1.91e-09  4.23e-02    76s
  57   1.06399060e+09  1.06401388e+09  5.38e-05 2.03e-09  3.18e-02    77s
  58   1.06399453e+09  1.06401265e+09  4.12e-05 1.73e-09  2.48e-02    77s
  59   1.06400505e+09  1.06400936e+09  8.38e-06 1.38e-09  5.90e-03    78s
  60   1.06400706e+09  1.06400848e+09  3.29e-06 1.57e-09  1.94e-03    79s
  61   1.06400786e+09  1.06400803e+09  7.45e-08 1.53e-09  2.30e-04    80s
  62   1.06400788e+09  1.06400795e+09  5.68e-08 1.69e-09  1.01e-04    82s
  63   1.06400789e+09  1.06400792e+09  3.28e-08 2.06e-09  3.75e-05    84s
  64   1.06400791e+09  1.06400791e+09  1.38e-06 2.34e-09  2.33e-06    85s
  65   1.06400791e+09  1.06400791e+09  3.38e-08 1.98e-09  5.59e-09    86s

Barrier solved model in 65 iterations and 86.14 seconds (37.07 work units)
Optimal objective 1.06400791e+09


Root crossover log...

   10644 DPushes remaining with DInf 0.0000000e+00                86s
       0 DPushes remaining with DInf 0.0000000e+00                87s

     851 PPushes remaining with PInf 0.0000000e+00                87s
       0 PPushes remaining with PInf 0.0000000e+00                88s

  Push phase complete: Pinf 0.0000000e+00, Dinf 5.3336440e+00     88s


Root simplex log...

Iteration    Objective       Primal Inf.    Dual Inf.      Time
   11489    1.0640079e+09   0.000000e+00   5.333644e+00     88s
   11490    1.0640079e+09   0.000000e+00   0.000000e+00     88s
Concurrent spin time: 0.11s

Solved with barrier
   11490    1.0640079e+09   0.000000e+00   0.000000e+00     88s

Root relaxation: objective 1.064008e+09, 11490 iterations, 70.12 seconds (16.93 work units)
Total elapsed time = 90.28s

    Nodes    |    Current Node    |     Objective Bounds      |     Work
 Expl Unexpl |  Obj  Depth IntInf | Incumbent    BestBd   Gap | It/Node Time

     0     0 1.0640e+09    0  404          - 1.0640e+09      -     -   93s
H    0     0                    1.035553e+09 1.0640e+09  2.75%     -  129s
H    0     0                    1.038413e+09 1.0640e+09  2.46%     -  189s
     0     0 1.0640e+09    0  417 1.0384e+09 1.0640e+09  2.46%     -  195s
H    0     0                    1.043484e+09 1.0640e+09  1.97%     -  297s
     0     0 1.0640e+09    0  385 1.0435e+09 1.0640e+09  1.97%     -  299s
     0     0 1.0640e+09    0  393 1.0435e+09 1.0640e+09  1.97%     -  300s
     0     0 1.0640e+09    0  393 1.0435e+09 1.0640e+09  1.97%     -  300s
     0     0 1.0640e+09    0  405 1.0435e+09 1.0640e+09  1.97%     -  304s
     0     0 1.0640e+09    0  418 1.0435e+09 1.0640e+09  1.97%     -  314s
     0     0 1.0640e+09    0  416 1.0435e+09 1.0640e+09  1.97%     -  318s
     0     0 1.0640e+09    0  419 1.0435e+09 1.0640e+09  1.97%     -  319s
     0     0 1.0640e+09    0  447 1.0435e+09 1.0640e+09  1.97%     -  324s
     0     0 1.0640e+09    0  446 1.0435e+09 1.0640e+09  1.97%     -  328s
     0     0 1.0640e+09    0  446 1.0435e+09 1.0640e+09  1.97%     -  329s
     0     0 1.0640e+09    0  399 1.0435e+09 1.0640e+09  1.97%     -  339s
     0     0 1.0640e+09    0  408 1.0435e+09 1.0640e+09  1.97%     -  339s
     0     0 1.0640e+09    0  398 1.0435e+09 1.0640e+09  1.97%     -  342s
     0     0 1.0640e+09    0  399 1.0435e+09 1.0640e+09  1.97%     -  347s
     0     0 1.0640e+09    0  405 1.0435e+09 1.0640e+09  1.97%     -  349s
     0     0 1.0640e+09    0  405 1.0435e+09 1.0640e+09  1.97%     -  354s
     0     0 1.0640e+09    0  394 1.0435e+09 1.0640e+09  1.97%     -  356s
     0     0 1.0640e+09    0  422 1.0435e+09 1.0640e+09  1.97%     -  363s
     0     0 1.0640e+09    0  452 1.0435e+09 1.0640e+09  1.97%     -  365s
     0     0 1.0640e+09    0  458 1.0435e+09 1.0640e+09  1.97%     -  365s
     0     0 1.0640e+09    0  455 1.0435e+09 1.0640e+09  1.97%     -  367s
     0     0 1.0640e+09    0  454 1.0435e+09 1.0640e+09  1.97%     -  371s
     0     0 1.0640e+09    0  456 1.0435e+09 1.0640e+09  1.97%     -  372s
     0     0 1.0640e+09    0  454 1.0435e+09 1.0640e+09  1.97%     -  375s
     0     2 1.0640e+09    0  452 1.0435e+09 1.0640e+09  1.97%     -  444s
     1     4 1.0640e+09    1  446 1.0435e+09 1.0640e+09  1.97%   617  455s
     3     8 1.0640e+09    2  425 1.0435e+09 1.0640e+09  1.97%  1193  500s
     7    12 1.0640e+09    3  458 1.0435e+09 1.0640e+09  1.96%  1512  516s
    11    16 1.0640e+09    3  440 1.0435e+09 1.0640e+09  1.96%  1269  569s
    15    20 1.0640e+09    4  474 1.0435e+09 1.0640e+09  1.96%  1400  580s
    19    24 1.0640e+09    5  477 1.0435e+09 1.0640e+09  1.96%  1174  609s
    23    28 1.0640e+09    6  452 1.0435e+09 1.0640e+09  1.96%  1187  625s
H   27    32                    1.045154e+09 1.0640e+09  1.80%  1080  691s
H   28    32                    1.055108e+09 1.0640e+09  0.84%  1042  692s

Cutting planes:
  Cover: 4
  Implied bound: 5
  Clique: 1
  MIR: 1
  Flow cover: 10
  GUB cover: 7
  Zero half: 2

Explored 31 nodes (49762 simplex iterations) in 693.07 seconds (519.69 work units)
Thread count was 8 (of 8 available processors)

Solution count 5: 1.05511e+09 1.04515e+09 1.04348e+09 ... 1.03555e+09

Solve interrupted
Best objective 1.055107649132e+09, best bound 1.063979423959e+09, gap 0.8408%
